NAME : XML100_1263_05
DIMENSION : 101
NB_CLUSTERS : 4
CLUSTERING_ALG : KMeans
CLUSTERING_PARAMS : k(3)
CLUSTERS
1 0
2 4 8 10 12 21 27 43 47 51 56 58 59 64 67 70 71 87 88 89 98 99
3 1 3 5 13 14 20 22 24 25 28 29 30 32 34 37 39 40 42 44 46 50 52 54 57 61 62 63 65 69 72 73 74 77 78 79 82 83 91 92 93 94 95 96
4 2 6 7 9 11 15 16 17 18 19 23 26 31 33 35 36 38 41 45 48 49 53 55 60 66 68 75 76 80 81 84 85 86 90 97 100
EOF